                                        
   1.00000000000000     
     6.1540879999999998   -0.0027450000000000    0.0006110000000000
    -3.0794210000000000    5.3278210000000001    0.0006750000000000
     0.0023100000000000    0.0042790000000000   22.8186309999999999
   Cr   Cl
     2     6
Direct
     0.6666770280036859    0.3333106108360192    0.5000006951427132
     0.9999892598196897    0.0000218697845108    0.5000005303229584
     0.3331131496608215    0.0290718095036564    0.5579981868973092
     0.9713907350178262    0.3047327694109472    0.5578490198868753
     0.6957594539205257    0.6664470553386882    0.5580037281181405
     0.6952769005908672    0.0285958632366049    0.4421500974527023
     0.3335566699135600    0.3042663043403049    0.4420008167348458
     0.9709041566781657    0.6668818358193073    0.4419954008029080
 
  0.00000000E+00  0.00000000E+00  0.00000000E+00
  0.00000000E+00  0.00000000E+00  0.00000000E+00
  0.00000000E+00  0.00000000E+00  0.00000000E+00
  0.00000000E+00  0.00000000E+00  0.00000000E+00
  0.00000000E+00  0.00000000E+00  0.00000000E+00
  0.00000000E+00  0.00000000E+00  0.00000000E+00
  0.00000000E+00  0.00000000E+00  0.00000000E+00
  0.00000000E+00  0.00000000E+00  0.00000000E+00
