
1.0
        6.154088   -0.002745    0.000611
       -3.079421    5.327821    0.000675
        0.002310    0.004279   22.818631
   Cr   Cl
    2    6
Cartesian
    3.07802737    1.77592029   11.40997144   1       1  Cr
    0.00056053    0.00244416   11.40924201   1       2  Cr
    1.97595415    0.13102893   12.77669369   2       3  Cl
    5.05557573    1.64866927   12.77262120   2       4  Cl
    2.20174096    3.55089654   12.77751016   2       5  Cl
    4.17721451    0.12689416   10.04725942   2       6  Cl
    1.10250590    1.64735251   10.04255288   2       7  Cl
    3.95144280    3.55265468   10.04306474   2       8  Cl