Cl2 molecule
1.0
  20.0 0.0 0.0
  0.0 20.0 0.0
  0.0 0.0 20.0
Cl
2
Cartesian
0.0 0.0 0.0
0.0 0.0 1.99
