Cr atom
1.0
  20.0 0.0 0.0
  0.0 20.0 0.0
  0.0 0.0 20.0
Cr
1
Cartesian
0.0 0.0 0.0
