Cr bulk bcc
1.0
  2.48  0.00  0.00
  0.00  2.48  0.00
  0.00  0.00  2.48
Cr
1
Direct
0.0 0.0 0.0
