PREC = Accurate
ENCUT = 500
ISMEAR = 0
SIGMA = 0.05
EDIFF = 1E-6
ISPIN = 2
LCHARG = .FALSE.
LWAVE  = .FALSE.
NSW = 0
IBRION = -1
ISYM = 0
LREAL = .FALSE.
MAGMOM = 2*3.0 6*0.6
