Automatic mesh
0
Monkhorst-Pack
6 6 4
0 0 0
